101
0 60 5 27 79 4 86 23 83 88 
45 40 52 62 7 21 70 30 65 56 
42 69 100 94 48 15 92 29 16 8 
13 19 61 11 63 28 78 35 87 47 
44 51 10 38 90 50 72 89 66 68 
54 46 24 36 14 41 17 73 33 31 
77 75 80 1 64 67 3 85 32 26 
98 2 49 93 18 76 57 25 91 43 
99 39 58 81 9 22 84 96 20 53 
37 55 95 12 59 82 34 74 97 71 
6 
